DIMENSION: 30
EDGE_WEIGHT_TYPE: EXPLICIT
EDGE_WEIGHT_FORMAT: FULL_MATRIX
EDGE_WEIGHT_SECTION:
32767 32767 32767 60 32767 26 93 48 35 32767 49 5 32767 32767 32767 32767 32767 32767 32767 32767 32767 32767 14 32767 32767 21 32767 32767 71 32767 
32767 32767 85 32767 32767 32767 51 22 32767 27 32767 32767 32767 32767 32767 32767 32767 71 32767 32767 32767 32767 32767 32767 32767 32767 32767 32767 62 32767 
32767 85 32767 32767 32767 32767 3 63 32767 73 32767 32767 50 8 32767 32767 32767 32767 32767 32767 46 32767 32767 18 83 32767 32767 32767 32767 32767 
60 32767 32767 32767 32767 32767 32767 76 10 9 2 32767 32767 32767 32767 32767 32767 32767 29 32767 32767 32767 32767 85 32767 32767 32767 32767 32767 32767 
32767 32767 32767 32767 32767 27 32767 32767 32767 32767 1 32767 32767 32767 53 32767 84 32767 64 32767 65 32767 49 32767 32767 4 32767 32767 32767 32767 
26 32767 32767 32767 27 32767 24 24 32767 43 73 32767 51 32767 32767 67 32767 32767 13 71 21 32767 32767 32767 32767 32767 60 48 32767 32767 
93 51 3 32767 32767 24 32767 16 32767 41 32767 43 65 28 32767 56 32767 32767 32767 32767 32767 100 96 32767 7 32767 32767 32767 34 32767 
48 22 63 76 32767 24 16 32767 65 92 32767 100 93 32767 32767 32767 32767 32767 60 32767 32767 32767 90 32767 32767 32767 98 32767 32767 32767 
35 32767 32767 10 32767 32767 32767 65 32767 20 32767 49 93 32767 32767 64 26 32767 26 32767 32767 5 32767 94 32767 32767 32767 32767 35 32767 
32767 27 73 9 32767 43 41 92 20 32767 32767 32767 32767 32767 32767 16 32767 32767 32767 32767 32767 32767 32767 32767 32767 50 76 32767 83 32767 
49 32767 32767 2 1 73 32767 32767 32767 32767 32767 32767 32767 32767 32767 32767 32767 32767 32767 32767 32767 50 98 33 32767 32767 32767 42 32767 32767 
5 32767 32767 32767 32767 32767 43 100 49 32767 32767 32767 32767 32767 78 32767 61 68 57 32767 32767 32767 32767 32767 32767 53 30 32767 15 83 
32767 32767 50 32767 32767 51 65 93 93 32767 32767 32767 32767 32767 24 93 90 32767 8 63 32767 32767 32767 32767 100 32767 32767 84 32767 54 
32767 32767 8 32767 32767 32767 28 32767 32767 32767 32767 32767 32767 32767 32767 32767 84 32767 51 32767 32767 32767 32767 32767 32767 32767 32767 31 32767 32767 
32767 32767 32767 32767 53 32767 32767 32767 32767 32767 32767 78 24 32767 32767 32767 32767 28 3 32767 32767 32767 13 75 21 36 32767 38 32767 32 
32767 32767 32767 32767 32767 67 56 32767 64 16 32767 32767 93 32767 32767 32767 32767 32767 32767 96 32767 32767 98 93 32767 48 32767 32767 32767 32767 
32767 32767 32767 32767 84 32767 32767 32767 26 32767 32767 61 90 84 32767 32767 32767 32767 21 1 14 32767 52 32767 35 98 54 32767 32767 50 
32767 71 32767 32767 32767 32767 32767 32767 32767 32767 32767 68 32767 32767 28 32767 32767 32767 32767 32767 32767 32767 32767 32767 46 32767 32767 32767 32767 32767 
32767 32767 32767 29 64 13 32767 60 26 32767 32767 57 8 51 3 32767 21 32767 32767 32767 8 92 32767 32767 32767 61 84 61 32767 32767 
32767 32767 32767 32767 32767 71 32767 32767 32767 32767 32767 32767 63 32767 32767 96 1 32767 32767 32767 32767 95 72 32767 32767 32767 32767 32767 32767 32767 
32767 32767 46 32767 65 21 32767 32767 32767 32767 32767 32767 32767 32767 32767 32767 14 32767 8 32767 32767 32767 32767 77 16 32767 67 85 32767 44 
32767 32767 32767 32767 32767 32767 100 32767 5 32767 50 32767 32767 32767 32767 32767 32767 32767 92 95 32767 32767 32767 4 32767 32767 32767 32767 32767 32767 
14 32767 32767 32767 49 32767 96 90 32767 32767 98 32767 32767 32767 13 98 52 32767 32767 72 32767 32767 32767 32767 32767 32767 35 32767 62 32767 
32767 32767 18 85 32767 32767 32767 32767 94 32767 33 32767 32767 32767 75 93 32767 32767 32767 32767 77 4 32767 32767 70 76 6 32767 32767 10 
32767 32767 83 32767 32767 32767 7 32767 32767 32767 32767 32767 100 32767 21 32767 35 46 32767 32767 16 32767 32767 70 32767 32767 32767 32767 26 51 
21 32767 32767 32767 4 32767 32767 32767 32767 50 32767 53 32767 32767 36 48 98 32767 61 32767 32767 32767 32767 76 32767 32767 32767 32767 84 32767 
32767 32767 32767 32767 32767 60 32767 98 32767 76 32767 30 32767 32767 32767 32767 54 32767 84 32767 67 32767 35 6 32767 32767 32767 96 32767 32767 
32767 32767 32767 32767 32767 48 32767 32767 32767 32767 42 32767 84 31 38 32767 32767 32767 61 32767 85 32767 32767 32767 32767 32767 96 32767 20 32767 
71 62 32767 32767 32767 32767 34 32767 35 83 32767 15 32767 32767 32767 32767 32767 32767 32767 32767 32767 32767 62 32767 26 84 32767 20 32767 98 
32767 32767 32767 32767 32767 32767 32767 32767 32767 32767 32767 83 54 32767 32 32767 50 32767 32767 32767 44 32767 32767 10 51 32767 32767 32767 98 32767 
EOF